NAME : mini-n7-k2
COMMENT : (Synthetic, Min no of trucks: 2, Optimal value unknown)
TYPE : CVRP
DIMENSION : 7
EDGE_WEIGHT_TYPE : EXPLICIT
EDGE_WEIGHT_FORMAT: LOWER_ROW
DISPLAY_DATA_TYPE: NO_DISPLAY
CAPACITY : 4000
EDGE_WEIGHT_SECTION
  10  20  30  25  15  35
      15  25  35  20  30
          30  20  40  25
              20  10  15
                  25  35
                      20
DEMAND_SECTION
1 0
2 1500
3 1000
4 800
5 1200
6 900
7 1300
DEPOT_SECTION
1
-1
EOF